115436
12011
49826
161799
2521
131885
564473
20217
139238
70195
13336
33401
5219
94201
279835
43070
63305
17257
2879
19371
32426
67653
15649
27861
75985
103266
638432
12146
25618
101261
20857
50695
25434
414281
7774
37596
75632
14510
70508
26209
75211
23905
360919
330537
9663
92124
15516
599217
115266
354635
31271
61125
271523
81548
158501
170105
7602
24890
5148
149779
22970
26400
11385
21857
72563
133116
152319
100054
171300
109727
81343
82003
205820
30413
15146
8590
26684
20927
493846
88117
14156
67972
141634
14448
48868
83320
48953
74414
204023
629546
678974
31360
875538
118794
786023
73240
163697
16429
80479
41843
44870
89233
270230
453085
76691
9622
7150
42566
11985
77508
275741
18436
39676
41283
19458
139712
241741
57890
100220
219214
41349
5482
7873
100756
162613
9490
78686
11987
